c description: There is a graph of 7 vertices with a 4-clique and a 4-coloring
c generator: CNFgen (0.9.0)
c copyright: (C) 2012-2020 Massimo Lauria <massimo.lauria@uniroma1.it>
c url: https://massimolauria.net/cnfgen
c
p cnf 77 515
-22 -23 0
-22 -24 0
-22 -25 0
-22 -26 0
-22 -27 0
-22 -28 0
-23 -24 0
-23 -25 0
-23 -26 0
-23 -27 0
-23 -28 0
-24 -25 0
-24 -26 0
-24 -27 0
-24 -28 0
-25 -26 0
-25 -27 0
-25 -28 0
-26 -27 0
-26 -28 0
-27 -28 0
22 23 24 25 26 27 28 0
-29 -30 0
-29 -31 0
-29 -32 0
-29 -33 0
-29 -34 0
-29 -35 0
-30 -31 0
-30 -32 0
-30 -33 0
-30 -34 0
-30 -35 0
-31 -32 0
-31 -33 0
-31 -34 0
-31 -35 0
-32 -33 0
-32 -34 0
-32 -35 0
-33 -34 0
-33 -35 0
-34 -35 0
29 30 31 32 33 34 35 0
-36 -37 0
-36 -38 0
-36 -39 0
-36 -40 0
-36 -41 0
-36 -42 0
-37 -38 0
-37 -39 0
-37 -40 0
-37 -41 0
-37 -42 0
-38 -39 0
-38 -40 0
-38 -41 0
-38 -42 0
-39 -40 0
-39 -41 0
-39 -42 0
-40 -41 0
-40 -42 0
-41 -42 0
36 37 38 39 40 41 42 0
-43 -44 0
-43 -45 0
-43 -46 0
-43 -47 0
-43 -48 0
-43 -49 0
-44 -45 0
-44 -46 0
-44 -47 0
-44 -48 0
-44 -49 0
-45 -46 0
-45 -47 0
-45 -48 0
-45 -49 0
-46 -47 0
-46 -48 0
-46 -49 0
-47 -48 0
-47 -49 0
-48 -49 0
43 44 45 46 47 48 49 0
-22 -29 0
-22 -36 0
-22 -43 0
-29 -36 0
-29 -43 0
-36 -43 0
-23 -30 0
-23 -37 0
-23 -44 0
-30 -37 0
-30 -44 0
-37 -44 0
-24 -31 0
-24 -38 0
-24 -45 0
-31 -38 0
-31 -45 0
-38 -45 0
-25 -32 0
-25 -39 0
-25 -46 0
-32 -39 0
-32 -46 0
-39 -46 0
-26 -33 0
-26 -40 0
-26 -47 0
-33 -40 0
-33 -47 0
-40 -47 0
-27 -34 0
-27 -41 0
-27 -48 0
-34 -41 0
-34 -48 0
-41 -48 0
-28 -35 0
-28 -42 0
-28 -49 0
-35 -42 0
-35 -49 0
-42 -49 0
1 -22 -30 0
1 -22 -37 0
1 -22 -44 0
1 -29 -23 0
1 -29 -37 0
1 -29 -44 0
1 -36 -23 0
1 -36 -30 0
1 -36 -44 0
1 -43 -23 0
1 -43 -30 0
1 -43 -37 0
2 -22 -31 0
2 -22 -38 0
2 -22 -45 0
2 -29 -24 0
2 -29 -38 0
2 -29 -45 0
2 -36 -24 0
2 -36 -31 0
2 -36 -45 0
2 -43 -24 0
2 -43 -31 0
2 -43 -38 0
3 -22 -32 0
3 -22 -39 0
3 -22 -46 0
3 -29 -25 0
3 -29 -39 0
3 -29 -46 0
3 -36 -25 0
3 -36 -32 0
3 -36 -46 0
3 -43 -25 0
3 -43 -32 0
3 -43 -39 0
4 -22 -33 0
4 -22 -40 0
4 -22 -47 0
4 -29 -26 0
4 -29 -40 0
4 -29 -47 0
4 -36 -26 0
4 -36 -33 0
4 -36 -47 0
4 -43 -26 0
4 -43 -33 0
4 -43 -40 0
5 -22 -34 0
5 -22 -41 0
5 -22 -48 0
5 -29 -27 0
5 -29 -41 0
5 -29 -48 0
5 -36 -27 0
5 -36 -34 0
5 -36 -48 0
5 -43 -27 0
5 -43 -34 0
5 -43 -41 0
6 -22 -35 0
6 -22 -42 0
6 -22 -49 0
6 -29 -28 0
6 -29 -42 0
6 -29 -49 0
6 -36 -28 0
6 -36 -35 0
6 -36 -49 0
6 -43 -28 0
6 -43 -35 0
6 -43 -42 0
7 -23 -31 0
7 -23 -38 0
7 -23 -45 0
7 -30 -24 0
7 -30 -38 0
7 -30 -45 0
7 -37 -24 0
7 -37 -31 0
7 -37 -45 0
7 -44 -24 0
7 -44 -31 0
7 -44 -38 0
8 -23 -32 0
8 -23 -39 0
8 -23 -46 0
8 -30 -25 0
8 -30 -39 0
8 -30 -46 0
8 -37 -25 0
8 -37 -32 0
8 -37 -46 0
8 -44 -25 0
8 -44 -32 0
8 -44 -39 0
9 -23 -33 0
9 -23 -40 0
9 -23 -47 0
9 -30 -26 0
9 -30 -40 0
9 -30 -47 0
9 -37 -26 0
9 -37 -33 0
9 -37 -47 0
9 -44 -26 0
9 -44 -33 0
9 -44 -40 0
10 -23 -34 0
10 -23 -41 0
10 -23 -48 0
10 -30 -27 0
10 -30 -41 0
10 -30 -48 0
10 -37 -27 0
10 -37 -34 0
10 -37 -48 0
10 -44 -27 0
10 -44 -34 0
10 -44 -41 0
11 -23 -35 0
11 -23 -42 0
11 -23 -49 0
11 -30 -28 0
11 -30 -42 0
11 -30 -49 0
11 -37 -28 0
11 -37 -35 0
11 -37 -49 0
11 -44 -28 0
11 -44 -35 0
11 -44 -42 0
12 -24 -32 0
12 -24 -39 0
12 -24 -46 0
12 -31 -25 0
12 -31 -39 0
12 -31 -46 0
12 -38 -25 0
12 -38 -32 0
12 -38 -46 0
12 -45 -25 0
12 -45 -32 0
12 -45 -39 0
13 -24 -33 0
13 -24 -40 0
13 -24 -47 0
13 -31 -26 0
13 -31 -40 0
13 -31 -47 0
13 -38 -26 0
13 -38 -33 0
13 -38 -47 0
13 -45 -26 0
13 -45 -33 0
13 -45 -40 0
14 -24 -34 0
14 -24 -41 0
14 -24 -48 0
14 -31 -27 0
14 -31 -41 0
14 -31 -48 0
14 -38 -27 0
14 -38 -34 0
14 -38 -48 0
14 -45 -27 0
14 -45 -34 0
14 -45 -41 0
15 -24 -35 0
15 -24 -42 0
15 -24 -49 0
15 -31 -28 0
15 -31 -42 0
15 -31 -49 0
15 -38 -28 0
15 -38 -35 0
15 -38 -49 0
15 -45 -28 0
15 -45 -35 0
15 -45 -42 0
16 -25 -33 0
16 -25 -40 0
16 -25 -47 0
16 -32 -26 0
16 -32 -40 0
16 -32 -47 0
16 -39 -26 0
16 -39 -33 0
16 -39 -47 0
16 -46 -26 0
16 -46 -33 0
16 -46 -40 0
17 -25 -34 0
17 -25 -41 0
17 -25 -48 0
17 -32 -27 0
17 -32 -41 0
17 -32 -48 0
17 -39 -27 0
17 -39 -34 0
17 -39 -48 0
17 -46 -27 0
17 -46 -34 0
17 -46 -41 0
18 -25 -35 0
18 -25 -42 0
18 -25 -49 0
18 -32 -28 0
18 -32 -42 0
18 -32 -49 0
18 -39 -28 0
18 -39 -35 0
18 -39 -49 0
18 -46 -28 0
18 -46 -35 0
18 -46 -42 0
19 -26 -34 0
19 -26 -41 0
19 -26 -48 0
19 -33 -27 0
19 -33 -41 0
19 -33 -48 0
19 -40 -27 0
19 -40 -34 0
19 -40 -48 0
19 -47 -27 0
19 -47 -34 0
19 -47 -41 0
20 -26 -35 0
20 -26 -42 0
20 -26 -49 0
20 -33 -28 0
20 -33 -42 0
20 -33 -49 0
20 -40 -28 0
20 -40 -35 0
20 -40 -49 0
20 -47 -28 0
20 -47 -35 0
20 -47 -42 0
21 -27 -35 0
21 -27 -42 0
21 -27 -49 0
21 -34 -28 0
21 -34 -42 0
21 -34 -49 0
21 -41 -28 0
21 -41 -35 0
21 -41 -49 0
21 -48 -28 0
21 -48 -35 0
21 -48 -42 0
-50 -51 0
-50 -52 0
-50 -53 0
-51 -52 0
-51 -53 0
-52 -53 0
50 51 52 53 0
-54 -55 0
-54 -56 0
-54 -57 0
-55 -56 0
-55 -57 0
-56 -57 0
54 55 56 57 0
-58 -59 0
-58 -60 0
-58 -61 0
-59 -60 0
-59 -61 0
-60 -61 0
58 59 60 61 0
-62 -63 0
-62 -64 0
-62 -65 0
-63 -64 0
-63 -65 0
-64 -65 0
62 63 64 65 0
-66 -67 0
-66 -68 0
-66 -69 0
-67 -68 0
-67 -69 0
-68 -69 0
66 67 68 69 0
-70 -71 0
-70 -72 0
-70 -73 0
-71 -72 0
-71 -73 0
-72 -73 0
70 71 72 73 0
-74 -75 0
-74 -76 0
-74 -77 0
-75 -76 0
-75 -77 0
-76 -77 0
74 75 76 77 0
-1 -50 -54 0
-1 -51 -55 0
-1 -52 -56 0
-1 -53 -57 0
-2 -50 -58 0
-2 -51 -59 0
-2 -52 -60 0
-2 -53 -61 0
-3 -50 -62 0
-3 -51 -63 0
-3 -52 -64 0
-3 -53 -65 0
-4 -50 -66 0
-4 -51 -67 0
-4 -52 -68 0
-4 -53 -69 0
-5 -50 -70 0
-5 -51 -71 0
-5 -52 -72 0
-5 -53 -73 0
-6 -50 -74 0
-6 -51 -75 0
-6 -52 -76 0
-6 -53 -77 0
-7 -54 -58 0
-7 -55 -59 0
-7 -56 -60 0
-7 -57 -61 0
-8 -54 -62 0
-8 -55 -63 0
-8 -56 -64 0
-8 -57 -65 0
-9 -54 -66 0
-9 -55 -67 0
-9 -56 -68 0
-9 -57 -69 0
-10 -54 -70 0
-10 -55 -71 0
-10 -56 -72 0
-10 -57 -73 0
-11 -54 -74 0
-11 -55 -75 0
-11 -56 -76 0
-11 -57 -77 0
-12 -58 -62 0
-12 -59 -63 0
-12 -60 -64 0
-12 -61 -65 0
-13 -58 -66 0
-13 -59 -67 0
-13 -60 -68 0
-13 -61 -69 0
-14 -58 -70 0
-14 -59 -71 0
-14 -60 -72 0
-14 -61 -73 0
-15 -58 -74 0
-15 -59 -75 0
-15 -60 -76 0
-15 -61 -77 0
-16 -62 -66 0
-16 -63 -67 0
-16 -64 -68 0
-16 -65 -69 0
-17 -62 -70 0
-17 -63 -71 0
-17 -64 -72 0
-17 -65 -73 0
-18 -62 -74 0
-18 -63 -75 0
-18 -64 -76 0
-18 -65 -77 0
-19 -66 -70 0
-19 -67 -71 0
-19 -68 -72 0
-19 -69 -73 0
-20 -66 -74 0
-20 -67 -75 0
-20 -68 -76 0
-20 -69 -77 0
-21 -70 -74 0
-21 -71 -75 0
-21 -72 -76 0
-21 -73 -77 0